Bruniera/ragionamento automatico/progetto/benchmark/asp/mid18.lp
start(0).
limit(6).
n(14).
strada(0,3,6).
strada(0,5,11).
strada(0,7,1).
strada(0,8,18).
strada(0,9,12).
strada(0,11,11).
strada(0,12,0).
strada(1,0,6).
strada(1,6,4).
strada(1,9,15).
strada(1,11,11).
strada(1,12,12).
strada(1,13,12).
strada(2,3,17).
strada(2,13,8).
strada(3,4,9).
strada(3,6,12).
strada(3,7,15).
strada(3,8,11).
strada(3,13,14).
strada(4,1,8).
strada(4,2,0).
strada(4,3,14).
strada(4,5,3).
strada(4,8,19).
strada(4,12,17).
strada(4,13,8).
strada(5,0,5).
strada(5,1,0).
strada(5,2,1).
strada(5,8,18).
strada(5,12,16).
strada(5,13,3).
strada(6,4,17).
strada(6,10,1).
strada(6,11,9).
strada(6,13,10).
strada(7,0,16).
strada(7,2,2).
strada(7,6,10).
strada(7,8,19).
strada(7,9,6).
strada(7,10,2).
strada(8,1,18).
strada(8,2,19).
strada(8,3,4).
strada(8,4,2).
strada(8,5,1).
strada(8,10,19).
strada(8,12,17).
strada(8,13,4).
strada(9,1,7).
strada(9,3,3).
strada(9,5,3).
strada(9,6,17).
strada(9,7,1).
strada(9,12,3).
strada(10,0,13).
strada(10,1,20).
strada(10,6,2).
strada(10,12,7).
strada(10,13,19).
strada(11,0,10).
strada(11,1,6).
strada(11,2,13).
strada(11,3,15).
strada(11,10,9).
strada(11,13,3).
strada(12,0,11).
strada(12,1,15).
strada(12,4,9).
strada(12,6,6).
strada(12,10,10).
strada(13,0,12).
strada(13,1,9).
strada(13,2,3).
strada(13,3,6).
strada(13,5,9).
strada(13,6,3).
strada(13,7,13).
strada(13,11,17).
strada(13,12,15).
