Bruniera/ragionamento automatico/progetto/benchmark/minizinc/mid18.dzn
start = 1;
limit = 6;
n = 14;
m=[|-1,-1,-1,6,-1,11,-1,1,18,12,-1,11,0,-1,
|6,-1,-1,-1,-1,-1,4,-1,-1,15,-1,11,12,12,
|-1,-1,-1,17,-1,-1,-1,-1,-1,-1,-1,-1,-1,8,
|-1,-1,-1,-1,9,-1,12,15,11,-1,-1,-1,-1,14,
|-1,8,0,14,-1,3,-1,-1,19,-1,-1,-1,17,8,
|5,0,1,-1,-1,-1,-1,-1,18,-1,-1,-1,16,3,
|-1,-1,-1,-1,17,-1,-1,-1,-1,-1,1,9,-1,10,
|16,-1,2,-1,-1,-1,10,-1,19,6,2,-1,-1,-1,
|-1,18,19,4,2,1,-1,-1,-1,-1,19,-1,17,4,
|-1,7,-1,3,-1,3,17,1,-1,-1,-1,-1,3,-1,
|13,20,-1,-1,-1,-1,2,-1,-1,-1,-1,-1,7,19,
|10,6,13,15,-1,-1,-1,-1,-1,-1,9,-1,-1,3,
|11,15,-1,-1,9,-1,6,-1,-1,-1,10,-1,-1,-1,
|12,9,3,6,-1,9,3,13,-1,-1,-1,17,15,-1,
|]
;